LengthSchedulingHorizon=7692;
nAttributes=2;
SetupCosts=[[0, 0], [1, 17], [15, 5]];
SetupTimes=[[0, 0], [12, 18], [24, 3]];
nMachines=5;
MinCap=[0, 0, 0, 0, 0];
MaxCap=[20, 20, 20, 20, 20];

initState=[1, 2, 2, 1, 1];
nShifts=3;
ShiftStartTimes = [[0, 0, 998], [0, 0, 5200], [1308, 1524, 5815], [0, 0, 3093], [0, 0, 4372]];
ShiftEndTimes = [[0, 0, 4501], [0, 0, 6270], [1426, 2639, 6479], [0, 0, 6775], [0, 0, 5430]];
nJobs=25;
EligibleMachines = [{4}, {1, 2, 4}, {3}, {1, 2, 3, 5}, {1, 3, 5}, {4}, {2, 3}, {1, 2, 3, 4, 5}, {1, 3, 4, 5}, {3, 4}, {2, 3, 4}, {1, 2, 3, 5}, {1, 5}, {1, 2, 3, 5}, {1, 3, 4, 5}, {1, 3, 4, 5}, {3, 4}, {4, 5}, {1, 3}, {2, 3, 4, 5}, {1, 2, 4}, {1, 3}, {1, 3, 5}, {1, 2, 5}, {1, 2}];
EarliestStart=[85, 40, 68, 53, 122, 60, 85, 91, 26, 118, 85, 62, 3, 70, 54, 107, 92, 3, 98, 124, 120, 79, 24, 51, 115];
LatestEnd=[97, 263, 182, 231, 193, 334, 108, 213, 137, 180, 249, 147, 156, 161, 174, 275, 115, 344, 355, 306, 165, 319, 162, 68, 239];
MinTime=[4, 74, 74, 37, 47, 62, 17, 80, 41, 20, 86, 74, 76, 61, 29, 82, 5, 83, 76, 42, 16, 49, 88, 17, 52];
MaxTime=[41, 99, 80, 56, 59, 91, 65, 94, 76, 23, 94, 74, 96, 96, 95, 97, 18, 98, 95, 89, 90, 70, 92, 73, 70];
JobSize=[6, 4, 19, 8, 6, 1, 15, 3, 12, 17, 1, 11, 9, 5, 9, 1, 6, 18, 4, 3, 7, 1, 17, 4, 10];
Attribute=[2, 2, 2, 1, 2, 1, 1, 1, 1, 2, 2, 1, 2, 1, 2, 1, 2, 2, 2, 1, 1, 2, 2, 1, 2];

upper_bound_integer_objective=13923000;
mult_factor_total_runtime=408;
mult_factor_finished_toolate=530400;
mult_factor_total_setuptimes=0;
mult_factor_total_setupcosts=312;
running_time_bound=1292;
min_duration=4;
max_duration=88;
max_setup_time=24;
max_setup_cost=17;
